# Solution for model GasLib-40
# Objective value = 1.1656644144413445e+01
loadshed[innode_1] 0
loadshed[innode_2] 0
loadshed[innode_3] 0
loadshed[innode_4] 0
loadshed[innode_5] 0
loadshed[innode_6] 0
loadshed[innode_7] 0
loadshed[innode_8] 0
loadshed[source_1] -2.1389993747214509e-01
loadshed[source_2] -4.3687492890875035e-02
loadshed[source_3] 3.3132152905815426e-01
loadshed[sink_1] 0
loadshed[sink_2] 0
loadshed[sink_3] 0
loadshed[sink_4] 0
loadshed[sink_5] 0
loadshed[sink_6] 0
loadshed[sink_7] 0
loadshed[sink_8] 0
loadshed[sink_9] 0
loadshed[sink_10] 0
loadshed[sink_11] 0
loadshed[sink_12] 7.1276295405330614e-01
loadshed[sink_13] 0
loadshed[sink_14] 0
loadshed[sink_15] 0
loadshed[sink_16] 0
loadshed[sink_17] 0
loadshed[sink_18] 0
loadshed[sink_19] 0
loadshed[sink_20] 0
loadshed[sink_21] 0
loadshed[sink_22] 0
loadshed[sink_23] 0
loadshed[sink_24] 0
loadshed[sink_25] 0
loadshed[sink_26] 0
loadshed[sink_27] 0
loadshed[sink_28] 0
loadshed[sink_29] 0
flow[source_1,sink_3] 1.9190577830939850e+02
flow[innode_1,sink_16] 1.6354166666666970e+01
flow[innode_6,sink_13] 8.7676014514501546e+00
flow[sink_13,sink_14] -7.5865652152165133e+00
flow[sink_14,sink_10] -2.3940731881883266e+01
flow[sink_25,sink_26] 1.7857875473897124e+02
flow[sink_26,sink_9] 1.3553085585558674e+02
flow[sink_9,sink_18] 1.1917668918892007e+02
flow[sink_26,sink_4] 2.6693732216718615e+01
flow[sink_4,sink_20] -3.8722934449950230e+01
flow[sink_18,sink_6] 1.0282252252225339e+02
flow[sink_25,innode_8] -1.5919744497606214e+02
flow[sink_6,sink_7] 5.3760022522253223e+01
flow[sink_6,sink_22] 3.2708333333333641e+01
flow[sink_7,sink_24] 3.7405855855586559e+01
flow[sink_22,sink_1] 1.6354166666666970e+01
flow[sink_24,sink_21] 2.1051689188919891e+01
flow[sink_21,sink_12] 4.6975225222532231e+00
flow[sink_7,sink_5] 0
flow[sink_5,sink_17] -1.6354166666667197e+01
flow[sink_17,sink_4] -4.9062500000002274e+01
flow[sink_17,sink_8] 1.6354166666668334e+01
flow[sink_3,sink_23] 16.3541666666697
flow[sink_8,sink_20] 0
flow[sink_25,sink_20] 5.5077101116616973e+01
flow[sink_25,sink_15] -9.9580178997643017e+01
flow[sink_15,sink_29] -6.4421086776637480e+01
flow[sink_29,sink_28] 1.6354166666667879e+01
flow[sink_29,sink_2] 6.7867425554338880e+01
flow[sink_2,sink_15] 5.1513258887672215e+01
flow[sink_29,innode_7] -1.6499684566431091e+02
flow[innode_4,sink_19] 4.0418550818657906e+01
flow[sink_19,innode_3] 7.3003231881883650e+01
flow[innode_4,innode_5] 6.5293014396558192e+01
flow[sink_27,innode_5] -6.5293014396558192e+01
flow[sink_27,sink_19] 4.8938847729891528e+01
flow[sink_10,sink_11] 3.2708333333333641e+01
flow[sink_10,innode_2] 0
flow[sink_10,innode_3] -7.3003231881883650e+01
flow[innode_6,sink_25] -8.7676014514501546e+00
flow[sink_11,innode_1] 1.6354166666666970e+01
flow[sink_19,innode_2] 0
flow[source_3,innode_4] 1.0571156521521610e+02
flow[source_2,innode_7] 1.6499684566431091e+02
flow[sink_3,innode_8] 1.5919744497606214e+02
pressure[innode_1] 75.1757361095973
pressure[innode_2] 7.5327437417200841e+01
pressure[innode_3] 79.2141341289985
pressure[innode_4] 81.01325
pressure[innode_5] 8.0968338021786735e+01
pressure[innode_6] 74.2298319323851
pressure[innode_7] 81.01325
pressure[innode_8] 80.3717822937762
pressure[source_1] 81.01325
pressure[source_2] 81.01325
pressure[source_3] 81.01325
pressure[sink_1] 4.4381850664048081e+01
pressure[sink_2] 7.4881072270553219e+01
pressure[sink_3] 80.3717822937762
pressure[sink_4] 5.8258724909109432e+01
pressure[sink_5] 5.5165450732347551e+01
pressure[sink_6] 4.6482928274435451e+01
pressure[sink_7] 4.5744931309703773e+01
pressure[sink_8] 5.5766632742288678e+01
pressure[sink_9] 5.3540763591139267e+01
pressure[sink_10] 7.5327437417200841e+01
pressure[sink_11] 75.1757361095973
pressure[sink_12] 1.0132500000000026e+00
pressure[sink_13] 7.4181497610785570e+01
pressure[sink_14] 7.4195074415470657e+01
pressure[sink_15] 7.4712892833624352e+01
pressure[sink_16] 7.4154086274779615e+01
pressure[sink_17] 56.3837179377023
pressure[sink_18] 4.9228595768661449e+01
pressure[sink_19] 79.3757915192817
pressure[sink_20] 6.1099619432176226e+01
pressure[sink_21] 2.6848856098267886e+00
pressure[sink_22] 4.5445619806403087e+01
pressure[sink_23] 8.0207064282116420e+01
pressure[sink_24] 2.9180135082421259e+00
pressure[sink_25] 74.2298319323851
pressure[sink_26] 6.1652635109606152e+01
pressure[sink_27] 8.0426526650813287e+01
pressure[sink_28] 7.6304948479262762e+01
pressure[sink_29] 7.6600230752879952e+01
interdiction[source_1,sink_3] 0
interdiction[innode_1,sink_16] 0
interdiction[innode_6,sink_13] 0
interdiction[sink_13,sink_14] 0
interdiction[sink_14,sink_10] 0
interdiction[sink_25,sink_26] 0
interdiction[sink_26,sink_9] 0
interdiction[sink_9,sink_18] 0
interdiction[sink_26,sink_4] 0
interdiction[sink_4,sink_20] 0
interdiction[sink_18,sink_6] 0
interdiction[sink_25,innode_8] 0
interdiction[sink_6,sink_7] 0
interdiction[sink_6,sink_22] 0
interdiction[sink_7,sink_24] 0
interdiction[sink_22,sink_1] 0
interdiction[sink_24,sink_21] 0
interdiction[sink_21,sink_12] 0
interdiction[sink_7,sink_5] 1
interdiction[sink_5,sink_17] 0
interdiction[sink_17,sink_4] 0
interdiction[sink_17,sink_8] 0
interdiction[sink_3,sink_23] 0
interdiction[sink_8,sink_20] 1
interdiction[sink_25,sink_20] 0
interdiction[sink_25,sink_15] 0
interdiction[sink_15,sink_29] 0
interdiction[sink_29,sink_28] 0
interdiction[sink_29,sink_2] 0
interdiction[sink_2,sink_15] 0
interdiction[sink_29,innode_7] 0
interdiction[innode_4,sink_19] 0
interdiction[sink_19,innode_3] 0
interdiction[innode_4,innode_5] 0
interdiction[sink_27,innode_5] 0
interdiction[sink_27,sink_19] 0
interdiction[sink_10,sink_11] 0
interdiction[sink_10,innode_2] 0
interdiction[sink_10,innode_3] 0
interdiction[innode_6,sink_25] 0
interdiction[sink_11,innode_1] 0
interdiction[sink_19,innode_2] 1
interdiction[source_3,innode_4] 0
interdiction[source_2,innode_7] 0
interdiction[sink_3,innode_8] 0
WCcheckFlow[source_1,sink_3] 39
WCcheckFlow[innode_1,sink_16] 1
WCcheckFlow[innode_6,sink_13] 13
WCcheckFlow[sink_13,sink_14] 12
WCcheckFlow[sink_14,sink_10] 11
WCcheckFlow[sink_25,sink_26] 15
WCcheckFlow[sink_26,sink_9] 9
WCcheckFlow[sink_9,sink_18] 8
WCcheckFlow[sink_26,sink_4] 5
WCcheckFlow[sink_4,sink_20] 1
WCcheckFlow[sink_18,sink_6] 7
WCcheckFlow[sink_25,innode_8] -36
WCcheckFlow[sink_6,sink_7] 4
WCcheckFlow[sink_6,sink_22] 2
WCcheckFlow[sink_7,sink_24] 3
WCcheckFlow[sink_22,sink_1] 1
WCcheckFlow[sink_24,sink_21] 2
WCcheckFlow[sink_21,sink_12] 1
WCcheckFlow[sink_7,sink_5] 0
WCcheckFlow[sink_5,sink_17] -1
WCcheckFlow[sink_17,sink_4] -3
WCcheckFlow[sink_17,sink_8] 1
WCcheckFlow[sink_3,sink_23] 1
WCcheckFlow[sink_8,sink_20] 0
WCcheckFlow[sink_25,sink_20] 0
WCcheckFlow[sink_25,sink_15] 6
WCcheckFlow[sink_15,sink_29] 5
WCcheckFlow[sink_29,sink_28] 1
WCcheckFlow[sink_29,sink_2] 1
WCcheckFlow[sink_2,sink_15] 0
WCcheckFlow[sink_29,innode_7] 2
WCcheckFlow[innode_4,sink_19] -4
WCcheckFlow[sink_19,innode_3] -5
WCcheckFlow[innode_4,innode_5] 2
WCcheckFlow[sink_27,innode_5] -1
WCcheckFlow[sink_27,sink_19] 0
WCcheckFlow[sink_10,sink_11] 3
WCcheckFlow[sink_10,innode_2] 1
WCcheckFlow[sink_10,innode_3] 6
WCcheckFlow[innode_6,sink_25] -14
WCcheckFlow[sink_11,innode_1] 2
WCcheckFlow[sink_19,innode_2] 0
WCcheckFlow[source_3,innode_4] -1
WCcheckFlow[source_2,innode_7] -1
WCcheckFlow[sink_3,innode_8] 37
